problems/csplib-prob015/SchursLemma-models/noch/O2/minion/model_2-5-30-solution000001.eprime-solution
language ESSENCE' 1.0

letting boxes_PartitionAsSet_ExplicitR6_ExplicitVarSizeWithDummy be
        [[1, 2, 4, 7, 10, 13, 16, 19, 22, 25, 28, 31, 31, 31, 31, 31, 31, 31, 31, 31, 31, 31, 31, 31, 31, 31, 31, 31,
          31, 31;
              int(1..30)],
         [3, 5, 6, 12, 14, 21, 23, 30, 31, 31, 31, 31, 31, 31, 31, 31, 31, 31, 31, 31, 31, 31, 31, 31, 31, 31, 31, 31,
          31, 31;
              int(1..30)],
         [8, 9, 11, 15, 18, 31, 31, 31, 31, 31, 31, 31, 31, 31, 31, 31, 31, 31, 31, 31, 31, 31, 31, 31, 31, 31, 31, 31,
          31, 31;
              int(1..30)],
         [17, 20, 24, 26, 27, 31, 31, 31, 31, 31, 31, 31, 31, 31, 31, 31, 31, 31, 31, 31, 31, 31, 31, 31, 31, 31, 31,
          31, 31, 31;
              int(1..30)],
         [29, 31, 31, 31, 31, 31, 31, 31, 31, 31, 31, 31, 31, 31, 31, 31, 31, 31, 31, 31, 31, 31, 31, 31, 31, 31, 31,
          31, 31, 31;
              int(1..30)];
             int(1..5)]
