problems/csplib-prob015/SchursLemma-models/noch/O2/minion/model_2-5-30-solution000001.solution
language Essence 1.3

letting boxes be
        partition({1, 2, 4, 7, 10, 13, 16, 19, 22, 25, 28}, {3, 5, 6, 12, 14, 21, 23, 30}, {8, 9, 11, 15, 18},
                  {17, 20, 24, 26, 27}, {29})
$ Visualisation for boxes
$  1  2  4  7 10 13 16 19 22 25 28
$  3  5  6 12 14 21 23 30
$  8  9 11 15 18
$ 17 20 24 26 27
$ 29

